<number of tasks>
50

<cycle time>
1000

<order strength>
0.2


<task times>
1 512
2 692
3 441
4 348
5 431
6 465
7 672
8 532
9 586
10 387
11 593
12 669
13 543
14 212
15 296
16 363
17 612
18 406
19 524
20 362
21 526
22 620
23 375
24 175
25 401
26 497
27 388
28 649
29 465
30 529
31 451
32 558
33 552
34 260
35 474
36 651
37 640
38 545
39 488
40 293
41 499
42 494
43 375
44 477
45 501
46 357
47 637
48 602
49 812
50 505

<precedence relations>
1,11
2,8
2,9
3,17
6,12
7,10
8,14
8,15
9,16
10,34
12,13
13,18
13,21
14,19
15,20
15,22
16,17
16,23
17,25
17,26
18,27
20,40
21,24
21,26
24,28
24,29
24,33
24,34
25,35
26,31
26,32
27,30
29,37
29,43
30,40
30,41
30,42
30,44
33,36
33,38
34,39
35,44
38,47
40,48
42,45
43,46
44,45
44,49
44,50

<end>
